webassembly/ejemplos_dzn/3/folder3_json_27.dzn
TERM = { '.', 's(2)', 'in_1', 's(1)', 's(0)', 's(3)', 'in_0'};
null = '.';
s = 3;
n = 8;
ndeps = 1;
max_registers_sz = 3;
NR = 0;
registers = [| |];
dependencies = [|'i32.load16_u_0', 'call[function_index(0)]_2'|];
GET_ENUM = { GET1, GET2, GET3};
SET_ENUM = { SET1, SET2, SET3};
TEE_ENUM = { TEE1, TEE2, TEE3};
N = 3;
OP = { 'i32.add_0', 'call[function_index(0)]_2', 'i32.load16_u_0' };
in_ops = [2, 0, 1 ];
out_ops = [1, 2, 1 ];
in1 = ['s(0)', '.', 'in_0' ];
in2 = ['in_1', '.', '.' ];
in3 = ['.', '.', '.' ];
out1 = ['s(1)', 's(3)', 's(0)' ];
out2 = ['.', 's(2)', '.' ];
out3 = ['.', '.', '.' ];
comm = [true, false, false ];
gas = [1, 1, 1 ];
sz = [1, 1, 1 ];
stor = [false, true, false ];
lb = [ 1, 1, 1 ];
ub = [ 3, 3, 3 ];
startstack = [ 'in_0', 'in_1', null, null, null, null, null, null ];
endstack = [ 's(3)', 's(2)', 's(1)', null, null, null, null, null ];
