webassembly/ejemplos_results/3/folder3_json_27.txt
value = 3;
fgas = [1, 1, 1];
fsize = [1, 1, 1];
states = 
[|   in_0,   in_1,    '.', '.', '.', '.', '.', '.'
 | 's(0)',   in_1,    '.', '.', '.', '.', '.', '.'
 | 's(1)',    '.',    '.', '.', '.', '.', '.', '.'
 | 's(3)', 's(2)', 's(1)', '.', '.', '.', '.', '.'
 |];
register_states = 
[| '.', '.', '.'
 | '.', '.', '.'
 | '.', '.', '.'
 | '.', '.', '.'
 |];
program = [O('i32.load16_u_0'), O('i32.add_0'), O('call[function_index(0)]_2')];
% time elapsed: 0.06 s
----------
==========
% time elapsed: 0.06 s
% [value > 2]
